c CNF file generated from BLIF2CNF script.
c Original BLIF file was blif/planet1.blif
p cnf 323 1536
 -1 0
- -1 0
1 -   0
-1 - 0
 -2 0
 -2 0
2 - -  0
-2  0
-3 -5 0
5 3  0
-5 4 0
-4 5  0
-6 -8 0
8 6  0
-8 7 0
-7 8  0
-9 -11 0
11 9  0
-11 10 0
-10 11  0
-12 -14 0
14 12  0
-14 13 0
-13 14  0
-15 -17 0
17 15  0
-17 16 0
-16 17  0
-18 -20 0
20 18  0
-20 19 0
-19 20  0
-21 -23 0
23 21  0
-23 22 0
-22 23  0
-24 -26 0
26 24  0
-26 25 0
-25 26  0
-27 -29 0
29 27  0
-29 28 0
-28 29  0
-30 -32 0
32 30  0
-32 31 0
-31 32  0
-33 -35 0
35 33  0
-35 34 0
-34 35  0
-36 -38 0
38 36  0
-38 37 0
-37 38  0
-39 -41 0
41 39  0
-41 40 0
-40 41  0
-42 -44 0
44 42  0
-44 43 0
-43 44  0
-45 -47 0
47 45  0
-47 46 0
-46 47  0
-48 -50 0
50 48  0
-50 49 0
-49 50  0
-51 -53 0
53 51  0
-53 52 0
-52 53  0
-54 -56 0
56 54  0
-56 55 0
-55 56  0
-57 -59 0
59 57  0
-59 58 0
-58 59  0
-60 -62 0
62 60  0
-62 61 0
-61 62  0
-63 -65 0
65 63  0
-65 64 0
-64 65  0
-66 -68 0
68 66  0
-68 67 0
-67 68  0
-69 -71 0
71 69  0
-71 70 0
-70 71  0
-72 -74 0
74 72  0
-74 73 0
-73 74  0
-75 -77 0
77 75  0
-77 76 0
-76 77  0
78 -87 0
-79 -87 0
-80 -87 0
-81 -87 0
-82 -87 0
-83 -87 0
-84 -87 0
-85 -87 0
87 -78 79 80 81 82 83 84 85  0
-87 86 0
-86 87  0
78 -89 0
79 -89 0
80 -89 0
81 -89 0
-82 -89 0
-83 -89 0
-84 -89 0
89 -78 -79 -80 -81 82 83 84  0
-89 88 0
-88 89  0
-90 -94 0
91 -94 0
92 -94 0
-80 -94 0
-82 -94 0
-83 -94 0
84 -94 0
85 -94 0
94 90 -91 -92 80 82 83 -84 -85  0
-94 93 0
-93 94  0
-90 -97 0
92 -97 0
-95 -97 0
-80 -97 0
-82 -97 0
-83 -97 0
84 -97 0
85 -97 0
97 90 -92 95 80 82 83 -84 -85  0
-97 96 0
-96 97  0
-98 -100 0
78 -100 0
-79 -100 0
80 -100 0
81 -100 0
-82 -100 0
-84 -100 0
-85 -100 0
100 98 -78 79 -80 -81 82 84 85  0
-100 99 0
-99 100  0
-98 -102 0
78 -102 0
-79 -102 0
81 -102 0
-82 -102 0
-83 -102 0
-84 -102 0
85 -102 0
102 98 -78 79 -81 82 83 84 -85  0
-102 101 0
-101 102  0
-90 -104 0
-98 -104 0
81 -104 0
82 -104 0
-83 -104 0
-84 -104 0
104 90 98 -81 -82 83 84  0
-104 103 0
-103 104  0
-78 -106 0
-79 -106 0
-80 -106 0
-81 -106 0
-82 -106 0
-83 -106 0
-84 -106 0
-85 -106 0
106 78 79 80 81 82 83 84 85  0
-106 105 0
-105 106  0
-98 -108 0
-78 -108 0
-79 -108 0
80 -108 0
81 -108 0
-82 -108 0
-83 -108 0
-84 -108 0
108 98 78 79 -80 -81 82 83 84  0
-108 107 0
-107 108  0
-90 -110 0
78 -110 0
-79 -110 0
81 -110 0
-82 -110 0
-83 -110 0
84 -110 0
-85 -110 0
110 90 -78 79 -81 82 83 -84 85  0
-110 109 0
-109 110  0
-90 -112 0
-78 -112 0
-79 -112 0
81 -112 0
-82 -112 0
-83 -112 0
84 -112 0
-85 -112 0
112 90 78 79 -81 82 83 -84 85  0
-112 111 0
-111 112  0
-98 -114 0
-78 -114 0
80 -114 0
81 -114 0
-82 -114 0
-84 -114 0
-85 -114 0
114 98 78 -80 -81 82 84 85  0
-114 113 0
-113 114  0
-98 -116 0
79 -116 0
80 -116 0
81 -116 0
-82 -116 0
-83 -116 0
-84 -116 0
116 98 -79 -80 -81 82 83 84  0
-116 115 0
-115 116  0
-90 -118 0
98 -118 0
81 -118 0
-82 -118 0
-85 -118 0
118 90 -98 -81 82 85  0
-118 117 0
-117 118  0
91 -120 0
80 -120 0
82 -120 0
83 -120 0
84 -120 0
120 -91 -80 -82 -83 -84  0
-120 119 0
-119 120  0
98 -122 0
-92 -122 0
-81 -122 0
83 -122 0
84 -122 0
122 -98 92 81 -83 -84  0
-122 121 0
-121 122  0
98 -124 0
-92 -124 0
-81 -124 0
84 -124 0
85 -124 0
124 -98 92 81 -84 -85  0
-124 123 0
-123 124  0
-90 -126 0
79 -126 0
81 -126 0
-82 -126 0
-83 -126 0
84 -126 0
-85 -126 0
126 90 -79 -81 82 83 -84 85  0
-126 125 0
-125 126  0
78 -128 0
79 -128 0
-80 -128 0
-81 -128 0
-82 -128 0
-83 -128 0
-84 -128 0
-85 -128 0
128 -78 -79 80 81 82 83 84 85  0
-128 127 0
-127 128  0
-80 -130 0
-81 -130 0
83 -130 0
84 -130 0
-85 -130 0
130 80 81 -83 -84 85  0
-130 129 0
-129 130  0
-98 -132 0
80 -132 0
-81 -132 0
82 -132 0
-83 -132 0
84 -132 0
132 98 -80 81 -82 83 -84  0
-132 131 0
-131 132  0
98 -134 0
80 -134 0
81 -134 0
82 -134 0
134 -98 -80 -81 -82  0
-134 133 0
-133 134  0
-78 -136 0
81 -136 0
-82 -136 0
-83 -136 0
-84 -136 0
85 -136 0
136 78 -81 82 83 84 -85  0
-136 135 0
-135 136  0
98 -138 0
80 -138 0
81 -138 0
83 -138 0
138 -98 -80 -81 -83  0
-138 137 0
-137 138  0
92 -140 0
-95 -140 0
-80 -140 0
81 -140 0
82 -140 0
83 -140 0
84 -140 0
85 -140 0
140 -92 95 80 -81 -82 -83 -84 -85  0
-140 139 0
-139 140  0
92 -142 0
95 -142 0
80 -142 0
-81 -142 0
-82 -142 0
83 -142 0
85 -142 0
142 -92 -95 -80 81 82 -83 -85  0
-142 141 0
-141 142  0
-91 -144 0
80 -144 0
81 -144 0
-83 -144 0
144 91 -80 -81 83  0
-144 143 0
-143 144  0
80 -146 0
82 -146 0
84 -146 0
85 -146 0
146 -80 -82 -84 -85  0
-146 145 0
-145 146  0
80 -148 0
-81 -148 0
-82 -148 0
-83 -148 0
-84 -148 0
-85 -148 0
148 -80 81 82 83 84 85  0
-148 147 0
-147 148  0
90 -150 0
91 -150 0
92 -150 0
-80 -150 0
-82 -150 0
-83 -150 0
84 -150 0
85 -150 0
150 -90 -91 -92 80 82 83 -84 -85  0
-150 149 0
-149 150  0
90 -152 0
92 -152 0
-95 -152 0
-80 -152 0
-82 -152 0
-83 -152 0
84 -152 0
85 -152 0
152 -90 -92 95 80 82 83 -84 -85  0
-152 151 0
-151 152  0
-78 -154 0
81 -154 0
-82 -154 0
84 -154 0
-85 -154 0
154 78 -81 82 -84 85  0
-154 153 0
-153 154  0
98 -156 0
-92 -156 0
-80 -156 0
-81 -156 0
-82 -156 0
83 -156 0
-84 -156 0
85 -156 0
156 -98 92 80 81 82 -83 84 -85  0
-156 155 0
-155 156  0
-98 -158 0
-92 -158 0
-80 -158 0
-81 -158 0
-82 -158 0
83 -158 0
-84 -158 0
85 -158 0
158 98 92 80 81 82 -83 84 -85  0
-158 157 0
-157 158  0
-80 -160 0
-81 -160 0
82 -160 0
-83 -160 0
84 -160 0
-85 -160 0
160 80 81 -82 83 -84 85  0
-160 159 0
-159 160  0
80 -162 0
-82 -162 0
83 -162 0
-84 -162 0
-85 -162 0
162 -80 82 -83 84 85  0
-162 161 0
-161 162  0
-91 -164 0
-81 -164 0
-82 -164 0
83 -164 0
84 -164 0
164 91 81 82 -83 -84  0
-164 163 0
-163 164  0
90 -166 0
-91 -166 0
95 -166 0
-80 -166 0
-82 -166 0
-83 -166 0
85 -166 0
166 -90 91 -95 80 82 83 -85  0
-166 165 0
-165 166  0
-95 -168 0
-81 -168 0
-82 -168 0
83 -168 0
84 -168 0
168 95 81 82 -83 -84  0
-168 167 0
-167 168  0
95 -170 0
-80 -170 0
81 -170 0
82 -170 0
83 -170 0
84 -170 0
85 -170 0
170 -95 80 -81 -82 -83 -84 -85  0
-170 169 0
-169 170  0
80 -172 0
81 -172 0
82 -172 0
83 -172 0
84 -172 0
172 -80 -81 -82 -83 -84  0
-172 171 0
-171 172  0
-80 -174 0
81 -174 0
-83 -174 0
85 -174 0
174 80 -81 83 -85  0
-174 173 0
-173 174  0
-98 -176 0
-81 -176 0
82 -176 0
-83 -176 0
84 -176 0
176 98 81 -82 83 -84  0
-176 175 0
-175 176  0
78 -178 0
79 -178 0
-83 -178 0
178 -78 -79 83  0
-178 177 0
-177 178  0
80 -180 0
81 -180 0
82 -180 0
-83 -180 0
84 -180 0
-85 -180 0
180 -80 -81 -82 83 -84 85  0
-180 179 0
-179 180  0
80 -182 0
82 -182 0
83 -182 0
-84 -182 0
-85 -182 0
182 -80 -82 -83 84 85  0
-182 181 0
-181 182  0
-98 -184 0
81 -184 0
-82 -184 0
-83 -184 0
84 -184 0
85 -184 0
184 98 -81 82 83 -84 -85  0
-184 183 0
-183 184  0
-98 -186 0
-80 -186 0
81 -186 0
-82 -186 0
-83 -186 0
186 98 80 -81 82 83  0
-186 185 0
-185 186  0
-91 -188 0
98 -188 0
80 -188 0
-81 -188 0
-82 -188 0
84 -188 0
-85 -188 0
188 91 -98 -80 81 82 -84 85  0
-188 187 0
-187 188  0
91 -190 0
98 -190 0
80 -190 0
-81 -190 0
-82 -190 0
84 -190 0
-85 -190 0
190 -91 -98 -80 81 82 -84 85  0
-190 189 0
-189 190  0
91 -192 0
-98 -192 0
80 -192 0
-81 -192 0
-82 -192 0
84 -192 0
-85 -192 0
192 -91 98 -80 81 82 -84 85  0
-192 191 0
-191 192  0
-91 -194 0
-98 -194 0
80 -194 0
-81 -194 0
-82 -194 0
84 -194 0
-85 -194 0
194 91 98 -80 81 82 -84 85  0
-194 193 0
-193 194  0
80 -196 0
82 -196 0
-83 -196 0
84 -196 0
85 -196 0
196 -80 -82 83 -84 -85  0
-196 195 0
-195 196  0
92 -198 0
-80 -198 0
81 -198 0
82 -198 0
-84 -198 0
85 -198 0
198 -92 80 -81 -82 84 -85  0
-198 197 0
-197 198  0
-98 -200 0
80 -200 0
-81 -200 0
83 -200 0
84 -200 0
200 98 -80 81 -83 -84  0
-200 199 0
-199 200  0
92 -202 0
-80 -202 0
-82 -202 0
83 -202 0
-84 -202 0
85 -202 0
202 -92 80 82 -83 84 -85  0
-202 201 0
-201 202  0
80 -204 0
81 -204 0
82 -204 0
83 -204 0
-84 -204 0
85 -204 0
204 -80 -81 -82 -83 84 -85  0
-204 203 0
-203 204  0
-98 -206 0
-81 -206 0
-82 -206 0
83 -206 0
84 -206 0
206 98 81 82 -83 -84  0
-206 205 0
-205 206  0
-92 -208 0
-95 -208 0
-80 -208 0
81 -208 0
85 -208 0
208 92 95 80 -81 -85  0
-208 207 0
-207 208  0
98 -210 0
-80 -210 0
81 -210 0
-82 -210 0
-83 -210 0
210 -98 80 -81 82 83  0
-210 209 0
-209 210  0
-80 -212 0
-82 -212 0
84 -212 0
-85 -212 0
212 80 82 -84 85  0
-212 211 0
-211 212  0
-90 -214 0
-80 -214 0
-83 -214 0
85 -214 0
214 90 80 83 -85  0
-214 213 0
-213 214  0
98 -216 0
-81 -216 0
-82 -216 0
83 -216 0
84 -216 0
216 -98 81 82 -83 -84  0
-216 215 0
-215 216  0
80 -218 0
-81 -218 0
-83 -218 0
-84 -218 0
85 -218 0
218 -80 81 83 84 -85  0
-218 217 0
-217 218  0
-92 -220 0
-80 -220 0
81 -220 0
-84 -220 0
85 -220 0
220 92 80 -81 84 -85  0
-220 219 0
-219 220  0
80 -222 0
81 -222 0
-82 -222 0
83 -222 0
-84 -222 0
222 -80 -81 82 -83 84  0
-222 221 0
-221 222  0
80 -224 0
-81 -224 0
82 -224 0
85 -224 0
224 -80 81 -82 -85  0
-224 223 0
-223 224  0
98 -226 0
-81 -226 0
82 -226 0
-83 -226 0
84 -226 0
-85 -226 0
226 -98 81 -82 83 -84 85  0
-226 225 0
-225 226  0
80 -228 0
-81 -228 0
-84 -228 0
-85 -228 0
228 -80 81 84 85  0
-228 227 0
-227 228  0
90 -230 0
81 -230 0
-82 -230 0
-83 -230 0
84 -230 0
-85 -230 0
230 -90 -81 82 83 -84 85  0
-230 229 0
-229 230  0
98 -232 0
80 -232 0
81 -232 0
-82 -232 0
-84 -232 0
-85 -232 0
232 -98 -80 -81 82 84 85  0
-232 231 0
-231 232  0
-95 -234 0
80 -234 0
-81 -234 0
-82 -234 0
83 -234 0
234 95 -80 81 82 -83  0
-234 233 0
-233 234  0
-92 -236 0
80 -236 0
-81 -236 0
-82 -236 0
83 -236 0
236 92 -80 81 82 -83  0
-236 235 0
-235 236  0
80 -238 0
-82 -238 0
83 -238 0
84 -238 0
85 -238 0
238 -80 82 -83 -84 -85  0
-238 237 0
-237 238  0
-92 -240 0
-80 -240 0
-82 -240 0
-83 -240 0
85 -240 0
240 92 80 82 83 -85  0
-240 239 0
-239 240  0
81 -242 0
82 -242 0
-83 -242 0
-84 -242 0
-85 -242 0
242 -81 -82 83 84 85  0
-242 241 0
-241 242  0
-80 -244 0
-82 -244 0
83 -244 0
-85 -244 0
244 80 82 -83 85  0
-244 243 0
-243 244  0
-81 -246 0
82 -246 0
83 -246 0
-84 -246 0
-85 -246 0
246 81 -82 -83 84 85  0
-246 245 0
-245 246  0
82 -248 0
-83 -248 0
-84 -248 0
85 -248 0
248 -82 83 84 -85  0
-248 247 0
-247 248  0
-80 -250 0
81 -250 0
83 -250 0
-84 -250 0
-85 -250 0
250 80 -81 -83 84 85  0
-250 249 0
-249 250  0
98 -252 0
80 -252 0
-81 -252 0
83 -252 0
84 -252 0
252 -98 -80 81 -83 -84  0
-252 251 0
-251 252  0
80 -254 0
-81 -254 0
84 -254 0
85 -254 0
254 -80 81 -84 -85  0
-254 253 0
-253 254  0
-80 -256 0
81 -256 0
-83 -256 0
84 -256 0
256 80 -81 83 -84  0
-256 255 0
-255 256  0
-80 -258 0
83 -258 0
84 -258 0
-85 -258 0
258 80 -83 -84 85  0
-258 257 0
-257 258  0
-80 -260 0
-81 -260 0
82 -260 0
-84 -260 0
85 -260 0
260 80 81 -82 84 -85  0
-260 259 0
-259 260  0
-80 -262 0
-81 -262 0
82 -262 0
83 -262 0
84 -262 0
262 80 81 -82 -83 -84  0
-262 261 0
-261 262  0
-80 -264 0
82 -264 0
-83 -264 0
-84 -264 0
264 80 -82 83 84  0
-264 263 0
-263 264  0
98 -266 0
81 -266 0
-82 -266 0
-83 -266 0
85 -266 0
266 -98 -81 82 83 -85  0
-266 265 0
-265 266  0
-81 -268 0
82 -268 0
-83 -268 0
85 -268 0
268 81 -82 83 -85  0
-268 267 0
-267 268  0
-82 -270 0
83 -270 0
84 -270 0
-85 -270 0
270 82 -83 -84 85  0
-270 269 0
-269 270  0
-80 -272 0
81 -272 0
-82 -272 0
84 -272 0
272 80 -81 82 -84  0
-272 271 0
-271 272  0
-80 -274 0
-83 -274 0
-84 -274 0
85 -274 0
274 80 83 84 -85  0
-274 273 0
-273 274  0
-93 -277 0
-96 -277 0
-123 -277 0
-127 -277 0
-131 -277 0
-139 -277 0
-147 -277 0
-155 -277 0
-157 -277 0
-161 -277 0
-163 -277 0
-165 -277 0
-167 -277 0
-183 -277 0
-275 -277 0
-276 -277 0
- -277 0
- -277 0
- -277 0
- -277 0
- -277 0
- -277 0
- -277 0
- -277 0
- -277 0
- -277 0
- -277 0
- -277 0
- -277 0
- -277 0
- -277 0
- -277 0
- -277 0
- -277 0
- -277 0
- -277 0
- -277 0
- -277 0
277 93 96 123 127 131 139 147 155 157 161 163 165 167 183 275 276                        0
-277 276 0
-276 277  0
-99 -280 0
-101 -280 0
-113 -280 0
-135 -280 0
-155 -280 0
-157 -280 0
-159 -280 0
-163 -280 0
-165 -280 0
-167 -280 0
-169 -280 0
-187 -280 0
-191 -280 0
-201 -280 0
-278 -280 0
-279 -280 0
- -280 0
- -280 0
- -280 0
- -280 0
- -280 0
- -280 0
- -280 0
- -280 0
- -280 0
- -280 0
- -280 0
- -280 0
- -280 0
- -280 0
- -280 0
- -280 0
- -280 0
- -280 0
- -280 0
280 99 101 113 135 155 157 159 163 165 167 169 187 191 201 278 279                     0
-280 279 0
-279 280  0
-88 -283 0
-99 -283 0
-109 -283 0
-111 -283 0
-113 -283 0
-121 -283 0
-125 -283 0
-149 -283 0
-151 -283 0
-159 -283 0
-161 -283 0
-163 -283 0
-165 -283 0
-167 -283 0
-169 -283 0
-281 -283 0
-282 -283 0
- -283 0
- -283 0
- -283 0
- -283 0
- -283 0
- -283 0
- -283 0
- -283 0
- -283 0
- -283 0
- -283 0
- -283 0
- -283 0
- -283 0
- -283 0
- -283 0
- -283 0
- -283 0
- -283 0
- -283 0
283 88 99 109 111 113 121 125 149 151 159 161 163 165 167 169 281 282                      0
-283 282 0
-282 283  0
-101 -286 0
-109 -286 0
-121 -286 0
-127 -286 0
-135 -286 0
-149 -286 0
-151 -286 0
-153 -286 0
-163 -286 0
-167 -286 0
-169 -286 0
-171 -286 0
-173 -286 0
-189 -286 0
-284 -286 0
-285 -286 0
- -286 0
- -286 0
- -286 0
- -286 0
- -286 0
- -286 0
- -286 0
- -286 0
- -286 0
- -286 0
- -286 0
- -286 0
- -286 0
- -286 0
- -286 0
- -286 0
- -286 0
- -286 0
- -286 0
286 101 109 121 127 135 149 151 153 163 167 169 171 173 189 284 285                     0
-286 285 0
-285 286  0
-93 -289 0
-96 -289 0
-99 -289 0
-109 -289 0
-113 -289 0
-129 -289 0
-141 -289 0
-147 -289 0
-153 -289 0
-155 -289 0
-157 -289 0
-161 -289 0
-173 -289 0
-175 -289 0
-181 -289 0
-287 -289 0
-288 -289 0
- -289 0
- -289 0
- -289 0
- -289 0
- -289 0
- -289 0
- -289 0
- -289 0
- -289 0
- -289 0
- -289 0
- -289 0
- -289 0
- -289 0
- -289 0
- -289 0
- -289 0
- -289 0
- -289 0
- -289 0
- -289 0
289 93 96 99 109 113 129 141 147 153 155 157 161 173 175 181 287 288                       0
-289 288 0
-288 289  0
-93 -292 0
-96 -292 0
-101 -292 0
-109 -292 0
-127 -292 0
-135 -292 0
-139 -292 0
-147 -292 0
-149 -292 0
-151 -292 0
-153 -292 0
-173 -292 0
-175 -292 0
-179 -292 0
-181 -292 0
-290 -292 0
-291 -292 0
- -292 0
- -292 0
- -292 0
- -292 0
- -292 0
- -292 0
- -292 0
- -292 0
- -292 0
- -292 0
- -292 0
- -292 0
- -292 0
- -292 0
- -292 0
- -292 0
- -292 0
- -292 0
- -292 0
292 93 96 101 109 127 135 139 147 149 151 153 173 175 179 181 290 291                     0
-292 291 0
-291 292  0
-105 -296 0
-127 -296 0
-131 -296 0
-139 -296 0
-141 -296 0
-149 -296 0
-151 -296 0
-155 -296 0
-157 -296 0
-165 -296 0
-169 -296 0
-183 -296 0
-185 -296 0
-187 -296 0
-293 -296 0
-294 -296 0
-295 -296 0
- -296 0
- -296 0
- -296 0
- -296 0
- -296 0
- -296 0
- -296 0
- -296 0
- -296 0
- -296 0
- -296 0
- -296 0
- -296 0
- -296 0
- -296 0
- -296 0
- -296 0
- -296 0
- -296 0
- -296 0
- -296 0
- -296 0
- -296 0
- -296 0
- -296 0
- -296 0
- -296 0
- -296 0
296 105 127 131 139 141 149 151 155 157 165 169 183 185 187 293 294 295                              0
-296 295 0
-295 296  0
-107 -297 0
-111 -297 0
-115 -297 0
-125 -297 0
-159 -297 0
-171 -297 0
-217 -297 0
-221 -297 0
-225 -297 0
-237 -297 0
-243 -297 0
-247 -297 0
-269 -297 0
297 107 111 115 125 159 171 217 221 225 237 243 247 269  0
-297 6 0
-6 297  0
-107 -299 0
-111 -299 0
-115 -299 0
-125 -299 0
-139 -299 0
-141 -299 0
-149 -299 0
-151 -299 0
-155 -299 0
-157 -299 0
-159 -299 0
-165 -299 0
-169 -299 0
-179 -299 0
-290 -299 0
-298 -299 0
-291 -299 0
- -299 0
- -299 0
- -299 0
- -299 0
- -299 0
- -299 0
- -299 0
- -299 0
- -299 0
- -299 0
- -299 0
- -299 0
- -299 0
- -299 0
- -299 0
- -299 0
- -299 0
- -299 0
- -299 0
- -299 0
- -299 0
- -299 0
- -299 0
- -299 0
- -299 0
- -299 0
- -299 0
- -299 0
- -299 0
- -299 0
- -299 0
- -299 0
- -299 0
- -299 0
299 107 111 115 125 139 141 149 151 155 157 159 165 169 179 290 298 291                                    0
-299 291 0
-291 299  0
-131 -300 0
-171 -300 0
-181 -300 0
-183 -300 0
-199 -300 0
-221 -300 0
-229 -300 0
-251 -300 0
300 131 171 181 183 199 221 229 251  0
-300 12 0
-12 300  0
-115 -302 0
-125 -302 0
-127 -302 0
-159 -302 0
-171 -302 0
-179 -302 0
-181 -302 0
-199 -302 0
-209 -302 0
-211 -302 0
-225 -302 0
-229 -302 0
-231 -302 0
-237 -302 0
-301 -302 0
- -302 0
- -302 0
- -302 0
- -302 0
- -302 0
302 115 125 127 159 171 179 181 199 209 211 225 229 231 237 301       0
-302 301 0
-301 302  0
-139 -304 0
-149 -304 0
-151 -304 0
-155 -304 0
-157 -304 0
-165 -304 0
-169 -304 0
-175 -304 0
-177 -304 0
-179 -304 0
-183 -304 0
-187 -304 0
-189 -304 0
-191 -304 0
-284 -304 0
-303 -304 0
-291 -304 0
- -304 0
- -304 0
- -304 0
- -304 0
- -304 0
- -304 0
- -304 0
- -304 0
- -304 0
- -304 0
- -304 0
- -304 0
- -304 0
- -304 0
- -304 0
- -304 0
- -304 0
- -304 0
- -304 0
- -304 0
- -304 0
- -304 0
- -304 0
- -304 0
- -304 0
- -304 0
- -304 0
- -304 0
- -304 0
- -304 0
- -304 0
- -304 0
- -304 0
- -304 0
- -304 0
- -304 0
304 139 149 151 155 157 165 169 175 177 179 183 187 189 191 284 303 291                                      0
-304 291 0
-291 304  0
-127 -306 0
-179 -306 0
-181 -306 0
-199 -306 0
-203 -306 0
-209 -306 0
-211 -306 0
-221 -306 0
-229 -306 0
-231 -306 0
-237 -306 0
-241 -306 0
-249 -306 0
-251 -306 0
-305 -306 0
- -306 0
- -306 0
306 127 179 181 199 203 209 211 221 229 231 237 241 249 251 305    0
-306 305 0
-305 306  0
-115 -308 0
-119 -308 0
-125 -308 0
-127 -308 0
-131 -308 0
-143 -308 0
-159 -308 0
-203 -308 0
-209 -308 0
-217 -308 0
-221 -308 0
-225 -308 0
-231 -308 0
-241 -308 0
-307 -308 0
- -308 0
- -308 0
- -308 0
- -308 0
308 115 119 125 127 131 143 159 203 209 217 221 225 231 241 307      0
-308 307 0
-307 308  0
-105 -312 0
-107 -312 0
-111 -312 0
-139 -312 0
-141 -312 0
-149 -312 0
-151 -312 0
-155 -312 0
-157 -312 0
-165 -312 0
-169 -312 0
-171 -312 0
-175 -312 0
-177 -312 0
-309 -312 0
-310 -312 0
-276 -312 0
-311 -312 0
- -312 0
- -312 0
- -312 0
- -312 0
- -312 0
- -312 0
- -312 0
- -312 0
- -312 0
- -312 0
- -312 0
- -312 0
- -312 0
- -312 0
- -312 0
- -312 0
- -312 0
- -312 0
- -312 0
- -312 0
- -312 0
- -312 0
- -312 0
- -312 0
- -312 0
- -312 0
- -312 0
- -312 0
- -312 0
- -312 0
- -312 0
- -312 0
- -312 0
- -312 0
- -312 0
- -312 0
- -312 0
- -312 0
- -312 0
- -312 0
- -312 0
- -312 0
- -312 0
- -312 0
312 105 107 111 139 141 149 151 155 157 165 169 171 175 177 309 310 276 311                                              0
-312 311 0
-311 312  0
-86 -313 0
-99 -313 0
-101 -313 0
-109 -313 0
313 86 99 101 109  0
-313 30 0
-30 313  0
-141 -314 0
-209 -314 0
314 141 209  0
-314 33 0
-33 314  0
-117 -315 0
-127 -315 0
-133 -315 0
-137 -315 0
-209 -315 0
-225 -315 0
-231 -315 0
-251 -315 0
-265 -315 0
315 117 127 133 137 209 225 231 251 265  0
-315 36 0
-36 315  0
-99 -316 0
-101 -316 0
-109 -316 0
-115 -316 0
-125 -316 0
-127 -316 0
316 99 101 109 115 125 127  0
-316 39 0
-39 316  0
-139 -317 0
-141 -317 0
-209 -317 0
317 139 141 209  0
-317 42 0
-42 317  0
-93 -318 0
-96 -318 0
-149 -318 0
-151 -318 0
318 93 96 149 151  0
-318 45 0
-45 318  0
-127 -319 0
-155 -319 0
319 127 155  0
-319 48 0
-48 319  0
-157 -320 0
-161 -320 0
-221 -320 0
320 157 161 221  0
-320 51 0
-51 320  0
-169 -321 0
-223 -321 0
-229 -321 0
321 169 223 229  0
-321 54 0
-54 321  0
-86 -323 0
-99 -323 0
-101 -323 0
-103 -323 0
-105 -323 0
-107 -323 0
-109 -323 0
-111 -323 0
-141 -323 0
-145 -323 0
-185 -323 0
-203 -323 0
-217 -323 0
-247 -323 0
-249 -323 0
323 86 99 101 103 105 107 109 111 141 145 185 203 217 247 249  0
-323 322 0
-322 323  0
